networks/zoo_20_55/standard/zoo_20_55.sol
<?xml version = "1.0" encoding="UTF-8" standalone="yes"?>
<CPLEXSolution version="1.2">
 <header
   problemName="networks/zoo_20_55/zoo_20_55.lp"
   solutionName="incumbent"
   solutionIndex="-1"
   objectiveValue="10"
   solutionTypeValue="3"
   solutionTypeString="primal"
   solutionStatusValue="101"
   solutionStatusString="integer optimal solution"
   solutionMethodString="mip"
   primalFeasible="1"
   dualFeasible="1"
   MIPNodes="0"
   MIPIterations="217"
   writeLevel="3"/>
 <quality
   epInt="1.0000000000000001e-05"
   epRHS="9.9999999999999995e-07"
   maxIntInfeas="0"
   maxPrimalInfeas="0"
   maxX="3"
   maxSlack="9"/>
 <variables>
  <variable name="Y(1,2)" index="1" value="1"/>
  <variable name="Y(8,3)" index="135" value="1"/>
  <variable name="Y(13,4)" index="231" value="1"/>
  <variable name="Y(18,1)" index="323" value="1"/>
  <variable name="Y(22,6)" index="404" value="1"/>
  <variable name="Y(29,7)" index="538" value="1"/>
  <variable name="Y(34,8)" index="634" value="1"/>
  <variable name="Y(38,10)" index="712" value="1"/>
  <variable name="Y(42,5)" index="783" value="1"/>
  <variable name="Y(51,9)" index="958" value="1"/>
  <variable name="X(1,10,1)" index="1045" value="1"/>
  <variable name="X(1,11,18)" index="1117" value="1"/>
  <variable name="X(2,4,8)" index="1162" value="1"/>
  <variable name="X(2,12,1)" index="1210" value="1"/>
  <variable name="X(3,4,13)" index="1277" value="1"/>
  <variable name="X(3,13,8)" index="1327" value="1"/>
  <variable name="X(4,2,1)" index="1375" value="1"/>
  <variable name="X(4,3,8)" index="1437" value="1"/>
  <variable name="X(4,5,42)" index="1526" value="1"/>
  <variable name="X(4,6,22)" index="1561" value="1"/>
  <variable name="X(4,7,29)" index="1623" value="1"/>
  <variable name="X(4,8,34)" index="1683" value="1"/>
  <variable name="X(4,10,38)" index="1742" value="1"/>
  <variable name="X(4,14,13)" index="1772" value="1"/>
  <variable name="X(5,4,29)" index="1843" value="1"/>
  <variable name="X(5,15,42)" index="1911" value="1"/>
  <variable name="X(6,4,34)" index="1958" value="1"/>
  <variable name="X(6,16,22)" index="2001" value="1"/>
  <variable name="X(7,4,38)" index="2072" value="1"/>
  <variable name="X(7,17,29)" index="2118" value="1"/>
  <variable name="X(8,4,42)" index="2186" value="1"/>
  <variable name="X(8,18,34)" index="2233" value="1"/>
  <variable name="X(9,10,51)" index="2305" value="1"/>
  <variable name="X(10,1,18)" index="2327" value="1"/>
  <variable name="X(10,4,1)" index="2365" value="1"/>
  <variable name="X(10,20,38)" index="2457" value="1"/>
  <variable name="C(1,10)" index="2476" value="1"/>
  <variable name="C(1,4)" index="2477" value="2"/>
  <variable name="C(1,2)" index="2478" value="3"/>
  <variable name="C(8,4)" index="2501" value="1"/>
  <variable name="C(8,3)" index="2502" value="2"/>
  <variable name="C(13,4)" index="2515" value="1"/>
  <variable name="C(18,1)" index="2530" value="1"/>
  <variable name="C(22,6)" index="2538" value="1"/>
  <variable name="C(29,4)" index="2554" value="1"/>
  <variable name="C(29,7)" index="2555" value="2"/>
  <variable name="C(34,4)" index="2568" value="1"/>
  <variable name="C(34,8)" index="2569" value="2"/>
  <variable name="C(38,4)" index="2579" value="1"/>
  <variable name="C(38,10)" index="2580" value="2"/>
  <variable name="C(42,4)" index="2590" value="1"/>
  <variable name="C(42,5)" index="2591" value="2"/>
 </variables>
</CPLEXSolution>
